p edge 54 409
e 1 4
e 1 5
e 1 8
e 1 10
e 1 14
e 1 20
e 1 23
e 1 24
e 1 26
e 1 30
e 1 35
e 1 45
e 1 49
e 1 50
e 1 54
e 2 3
e 2 5
e 2 9
e 2 10
e 2 11
e 2 13
e 2 15
e 2 18
e 2 21
e 2 23
e 2 27
e 2 31
e 2 35
e 2 37
e 2 39
e 2 42
e 2 52
e 2 53
e 2 54
e 3 8
e 3 10
e 3 11
e 3 12
e 3 14
e 3 17
e 3 19
e 3 20
e 3 22
e 3 24
e 3 28
e 3 31
e 3 32
e 3 35
e 3 37
e 3 44
e 3 48
e 3 54
e 4 6
e 4 8
e 4 9
e 4 10
e 4 13
e 4 14
e 4 16
e 4 17
e 4 25
e 4 26
e 4 30
e 4 32
e 4 37
e 4 40
e 4 46
e 4 47
e 4 52
e 4 53
e 5 16
e 5 18
e 5 20
e 5 27
e 5 29
e 5 30
e 5 34
e 5 35
e 5 38
e 5 42
e 5 48
e 5 53
e 6 8
e 6 18
e 6 19
e 6 22
e 6 23
e 6 24
e 6 32
e 6 34
e 6 36
e 6 40
e 6 49
e 6 54
e 7 8
e 7 14
e 7 17
e 7 21
e 7 26
e 7 31
e 7 34
e 7 36
e 7 41
e 7 45
e 7 49
e 8 10
e 8 12
e 8 18
e 8 25
e 8 27
e 8 28
e 8 30
e 8 34
e 8 38
e 8 44
e 8 45
e 8 48
e 8 52
e 9 15
e 9 17
e 9 21
e 9 22
e 9 31
e 9 36
e 9 41
e 9 43
e 9 44
e 9 47
e 9 48
e 9 49
e 10 13
e 10 14
e 10 18
e 10 20
e 10 31
e 10 32
e 10 33
e 10 35
e 10 37
e 10 47
e 10 48
e 10 51
e 10 54
e 11 12
e 11 16
e 11 18
e 11 21
e 11 23
e 11 24
e 11 26
e 11 29
e 11 34
e 11 35
e 11 41
e 11 49
e 11 50
e 12 13
e 12 18
e 12 23
e 12 24
e 12 29
e 12 32
e 12 34
e 12 35
e 12 36
e 12 37
e 12 38
e 12 42
e 12 43
e 12 44
e 12 45
e 12 48
e 12 50
e 12 52
e 12 53
e 13 15
e 13 18
e 13 20
e 13 31
e 13 33
e 13 34
e 13 35
e 13 37
e 13 39
e 13 43
e 13 49
e 13 50
e 14 21
e 14 24
e 14 28
e 14 29
e 14 33
e 14 38
e 14 48
e 14 49
e 15 19
e 15 23
e 15 26
e 15 32
e 15 41
e 15 43
e 15 52
e 16 17
e 16 19
e 16 23
e 16 34
e 16 35
e 16 36
e 16 38
e 16 42
e 16 46
e 16 49
e 17 18
e 17 21
e 17 23
e 17 25
e 17 34
e 17 36
e 17 38
e 17 39
e 17 41
e 17 47
e 17 53
e 18 21
e 18 26
e 18 30
e 18 34
e 18 40
e 18 42
e 18 43
e 18 46
e 18 47
e 18 50
e 18 51
e 18 52
e 18 53
e 19 26
e 19 32
e 19 36
e 19 38
e 19 46
e 19 47
e 19 49
e 19 51
e 19 54
e 20 22
e 20 26
e 20 30
e 20 32
e 20 35
e 20 38
e 20 39
e 20 41
e 20 42
e 20 48
e 20 52
e 21 22
e 21 23
e 21 24
e 21 29
e 21 32
e 21 35
e 21 41
e 21 42
e 21 50
e 22 24
e 22 31
e 22 32
e 22 33
e 22 38
e 22 40
e 22 46
e 22 51
e 23 27
e 23 29
e 23 30
e 23 33
e 23 36
e 23 45
e 23 51
e 23 54
e 24 25
e 24 26
e 24 28
e 24 30
e 24 33
e 24 41
e 24 43
e 24 52
e 25 38
e 25 39
e 25 49
e 25 52
e 25 53
e 26 27
e 26 29
e 26 34
e 26 35
e 26 37
e 26 39
e 26 46
e 26 54
e 27 28
e 27 31
e 27 32
e 27 39
e 27 41
e 27 44
e 27 48
e 27 50
e 27 51
e 27 53
e 28 31
e 28 32
e 28 33
e 28 37
e 28 42
e 28 52
e 29 30
e 29 39
e 29 40
e 29 44
e 29 46
e 29 47
e 29 49
e 30 34
e 30 36
e 30 38
e 30 48
e 30 50
e 30 53
e 31 35
e 31 47
e 31 53
e 32 34
e 32 42
e 32 43
e 32 44
e 32 49
e 32 51
e 32 53
e 33 36
e 33 43
e 33 45
e 33 46
e 33 47
e 33 48
e 33 52
e 34 35
e 34 39
e 34 42
e 34 47
e 34 48
e 34 49
e 34 50
e 35 38
e 35 40
e 35 44
e 35 46
e 35 47
e 35 48
e 35 50
e 36 39
e 36 43
e 36 44
e 36 45
e 36 53
e 36 54
e 37 43
e 37 44
e 37 45
e 37 47
e 37 51
e 38 39
e 38 40
e 38 50
e 38 52
e 39 49
e 39 50
e 39 52
e 40 43
e 40 44
e 40 50
e 40 54
e 41 43
e 41 49
e 41 54
e 42 44
e 42 48
e 42 51
e 42 54
e 43 44
e 43 49
e 43 52
e 44 45
e 44 50
e 44 52
e 45 46
e 45 49
e 45 50
e 45 51
e 45 54
e 47 49
e 48 51
e 48 54
e 49 50
e 51 52
e 51 54
e 52 54
